ITEM = 1..50;
capacity1 = 516;
capacity2 = 516;
capacity3 = 516;
profits = [77, 38, 23, 28, 27, 57, 24, 25, 91, 31, 25, 53, 22, 50, 49, 79, 24, 68, 29, 26, 46, 61, 23, 31, 20, 56, 36, 77, 84, 44, 93, 41, 72, 53, 42, 39, 87, 32, 36, 25, 33, 31, 49, 55, 30, 48, 21, 34, 28, 77];
weights = [74, 56, 39, 31, 27, 47, 75, 44, 91, 57, 48, 50, 54, 85, 39, 92, 36, 82, 99, 33, 63, 84, 91, 34, 11, 50, 60, 88, 98, 66, 89, 70, 63, 75, 100, 42, 96, 33, 29, 60, 57, 81, 74, 98, 45, 77, 23, 50, 54, 78];
